NAME: A-n60-k9-C20-V3
TYPE: SoftCluVRP
DIMENSION:  60 
VEHICLES:  3 
GVRP_SETS:  20 
CAPACITY:  100 
EDGE_WEIGHT_TYPE: EUC_2D
NODE_COORD_SECTION 
1 27.000000 93.000000
2 33.000000 27.000000
3 29.000000 39.000000
4 7.000000 81.000000
5 1.000000 59.000000
6 49.000000 9.000000
7 21.000000 53.000000
8 79.000000 89.000000
9 81.000000 83.000000
10 85.000000 11.000000
11 45.000000 9.000000
12 7.000000 65.000000
13 95.000000 27.000000
14 81.000000 85.000000
15 37.000000 81.000000
16 69.000000 69.000000
17 15.000000 95.000000
18 89.000000 75.000000
19 33.000000 93.000000
20 57.000000 83.000000
21 11.000000 95.000000
22 3.000000 57.000000
23 45.000000 11.000000
24 43.000000 61.000000
25 35.000000 43.000000
26 19.000000 83.000000
27 83.000000 69.000000
28 85.000000 77.000000
29 19.000000 39.000000
30 83.000000 87.000000
31 1.000000 13.000000
32 15.000000 39.000000
33 83.000000 17.000000
34 41.000000 97.000000
35 31.000000 61.000000
36 59.000000 69.000000
37 29.000000 15.000000
38 93.000000 83.000000
39 63.000000 97.000000
40 65.000000 57.000000
41 15.000000 69.000000
42 31.000000 97.000000
43 57.000000 9.000000
44 85.000000 37.000000
45 21.000000 29.000000
46 53.000000 11.000000
47 15.000000 77.000000
48 41.000000 69.000000
49 45.000000 17.000000
50 13.000000 25.000000
51 63.000000 57.000000
52 95.000000 5.000000
53 55.000000 91.000000
54 3.000000 31.000000
55 47.000000 7.000000
56 61.000000 69.000000
57 85.000000 35.000000
58 89.000000 81.000000
59 45.000000 47.000000
60 65.000000 93.000000
GVRP_SET_SECTION 
 1 52 -1
 2  21  17 -1
 3  31 -1
 4  38  18  28  58 -1
 5  59  25 -1
 6  55  6  11  23  43  46  49 -1
 7  22  5  12 -1
 8  53  20  39  60 -1
 9  44  57 -1
 10  16  27  36  40  51  56 -1
 11  45  2  3  29  32  50 -1
 12  19  15  34  42 -1
 13  48  24  35 -1
 14  7 -1
 15  47  4  26  41 -1
 16  54 -1
 17  33  10 -1
 18  37 -1
 19  8  9  14  30 -1
 20  13 -1
 DEMAND_SECTION
 1 24 
 2 6 
 3 9 
 4 12 
 5 16 
 6 22 
 7 11 
 8 14 
 9 19 
 10 10 
 11 11 
 12 10 
 13 16 
 14 17 
 15 9 
 16 21 
 17 6 
 18 9 
 19 20 
 20 18 
EOF
